c File: flat50_3_0.col
c
c SOURCE: Joseph Culberson (joe@cs.ualberta.ca)
c DESCRIPTION: Quasi-random coloring problem
c              generated with flatness = 0
c                             probability = 0.139
c                             known coloring = 3
c                             random seed = 1247
c              Creation Date:  Tue Jun  9 12:04:42 1998
c Maximum degree = 8 Minimum degree = 1
c p edge 50 115
c cnf created by edge2cnf
p cnf 150 545
-1 -2 0
-1 -3 0
-2 -3 0
1 2 3 0
-4 -5 0
-4 -6 0
-5 -6 0
4 5 6 0
-7 -8 0
-7 -9 0
-8 -9 0
7 8 9 0
-10 -11 0
-10 -12 0
-11 -12 0
10 11 12 0
-13 -14 0
-13 -15 0
-14 -15 0
13 14 15 0
-16 -17 0
-16 -18 0
-17 -18 0
16 17 18 0
-19 -20 0
-19 -21 0
-20 -21 0
19 20 21 0
-22 -23 0
-22 -24 0
-23 -24 0
22 23 24 0
-25 -26 0
-25 -27 0
-26 -27 0
25 26 27 0
-28 -29 0
-28 -30 0
-29 -30 0
28 29 30 0
-31 -32 0
-31 -33 0
-32 -33 0
31 32 33 0
-34 -35 0
-34 -36 0
-35 -36 0
34 35 36 0
-37 -38 0
-37 -39 0
-38 -39 0
37 38 39 0
-40 -41 0
-40 -42 0
-41 -42 0
40 41 42 0
-43 -44 0
-43 -45 0
-44 -45 0
43 44 45 0
-46 -47 0
-46 -48 0
-47 -48 0
46 47 48 0
-49 -50 0
-49 -51 0
-50 -51 0
49 50 51 0
-52 -53 0
-52 -54 0
-53 -54 0
52 53 54 0
-55 -56 0
-55 -57 0
-56 -57 0
55 56 57 0
-58 -59 0
-58 -60 0
-59 -60 0
58 59 60 0
-61 -62 0
-61 -63 0
-62 -63 0
61 62 63 0
-64 -65 0
-64 -66 0
-65 -66 0
64 65 66 0
-67 -68 0
-67 -69 0
-68 -69 0
67 68 69 0
-70 -71 0
-70 -72 0
-71 -72 0
70 71 72 0
-73 -74 0
-73 -75 0
-74 -75 0
73 74 75 0
-76 -77 0
-76 -78 0
-77 -78 0
76 77 78 0
-79 -80 0
-79 -81 0
-80 -81 0
79 80 81 0
-82 -83 0
-82 -84 0
-83 -84 0
82 83 84 0
-85 -86 0
-85 -87 0
-86 -87 0
85 86 87 0
-88 -89 0
-88 -90 0
-89 -90 0
88 89 90 0
-91 -92 0
-91 -93 0
-92 -93 0
91 92 93 0
-94 -95 0
-94 -96 0
-95 -96 0
94 95 96 0
-97 -98 0
-97 -99 0
-98 -99 0
97 98 99 0
-100 -101 0
-100 -102 0
-101 -102 0
100 101 102 0
-103 -104 0
-103 -105 0
-104 -105 0
103 104 105 0
-106 -107 0
-106 -108 0
-107 -108 0
106 107 108 0
-109 -110 0
-109 -111 0
-110 -111 0
109 110 111 0
-112 -113 0
-112 -114 0
-113 -114 0
112 113 114 0
-115 -116 0
-115 -117 0
-116 -117 0
115 116 117 0
-118 -119 0
-118 -120 0
-119 -120 0
118 119 120 0
-121 -122 0
-121 -123 0
-122 -123 0
121 122 123 0
-124 -125 0
-124 -126 0
-125 -126 0
124 125 126 0
-127 -128 0
-127 -129 0
-128 -129 0
127 128 129 0
-130 -131 0
-130 -132 0
-131 -132 0
130 131 132 0
-133 -134 0
-133 -135 0
-134 -135 0
133 134 135 0
-136 -137 0
-136 -138 0
-137 -138 0
136 137 138 0
-139 -140 0
-139 -141 0
-140 -141 0
139 140 141 0
-142 -143 0
-142 -144 0
-143 -144 0
142 143 144 0
-145 -146 0
-145 -147 0
-146 -147 0
145 146 147 0
-148 -149 0
-148 -150 0
-149 -150 0
148 149 150 0
-70 -1 0
-71 -2 0
-72 -3 0
-112 -1 0
-113 -2 0
-114 -3 0
-115 -1 0
-116 -2 0
-117 -3 0
-94 -4 0
-95 -5 0
-96 -6 0
-109 -4 0
-110 -5 0
-111 -6 0
-121 -4 0
-122 -5 0
-123 -6 0
-124 -4 0
-125 -5 0
-126 -6 0
-52 -7 0
-53 -8 0
-54 -9 0
-64 -7 0
-65 -8 0
-66 -9 0
-79 -7 0
-80 -8 0
-81 -9 0
-136 -7 0
-137 -8 0
-138 -9 0
-70 -10 0
-71 -11 0
-72 -12 0
-85 -10 0
-86 -11 0
-87 -12 0
-124 -10 0
-125 -11 0
-126 -12 0
-127 -10 0
-128 -11 0
-129 -12 0
-148 -10 0
-149 -11 0
-150 -12 0
-94 -13 0
-95 -14 0
-96 -15 0
-130 -13 0
-131 -14 0
-132 -15 0
-136 -13 0
-137 -14 0
-138 -15 0
-58 -16 0
-59 -17 0
-60 -18 0
-61 -16 0
-62 -17 0
-63 -18 0
-91 -16 0
-92 -17 0
-93 -18 0
-127 -16 0
-128 -17 0
-129 -18 0
-142 -16 0
-143 -17 0
-144 -18 0
-76 -19 0
-77 -20 0
-78 -21 0
-97 -19 0
-98 -20 0
-99 -21 0
-115 -19 0
-116 -20 0
-117 -21 0
-133 -19 0
-134 -20 0
-135 -21 0
-55 -22 0
-56 -23 0
-57 -24 0
-70 -22 0
-71 -23 0
-72 -24 0
-97 -22 0
-98 -23 0
-99 -24 0
-124 -22 0
-125 -23 0
-126 -24 0
-148 -22 0
-149 -23 0
-150 -24 0
-61 -25 0
-62 -26 0
-63 -27 0
-76 -25 0
-77 -26 0
-78 -27 0
-91 -25 0
-92 -26 0
-93 -27 0
-106 -25 0
-107 -26 0
-108 -27 0
-109 -25 0
-110 -26 0
-111 -27 0
-58 -28 0
-59 -29 0
-60 -30 0
-61 -28 0
-62 -29 0
-63 -30 0
-130 -28 0
-131 -29 0
-132 -30 0
-148 -28 0
-149 -29 0
-150 -30 0
-67 -31 0
-68 -32 0
-69 -33 0
-79 -31 0
-80 -32 0
-81 -33 0
-91 -31 0
-92 -32 0
-93 -33 0
-97 -31 0
-98 -32 0
-99 -33 0
-106 -31 0
-107 -32 0
-108 -33 0
-133 -31 0
-134 -32 0
-135 -33 0
-136 -31 0
-137 -32 0
-138 -33 0
-79 -34 0
-80 -35 0
-81 -36 0
-82 -34 0
-83 -35 0
-84 -36 0
-85 -34 0
-86 -35 0
-87 -36 0
-112 -34 0
-113 -35 0
-114 -36 0
-115 -34 0
-116 -35 0
-117 -36 0
-133 -34 0
-134 -35 0
-135 -36 0
-136 -34 0
-137 -35 0
-138 -36 0
-61 -37 0
-62 -38 0
-63 -39 0
-127 -37 0
-128 -38 0
-129 -39 0
-58 -40 0
-59 -41 0
-60 -42 0
-112 -40 0
-113 -41 0
-114 -42 0
-127 -40 0
-128 -41 0
-129 -42 0
-130 -40 0
-131 -41 0
-132 -42 0
-145 -40 0
-146 -41 0
-147 -42 0
-70 -43 0
-71 -44 0
-72 -45 0
-73 -43 0
-74 -44 0
-75 -45 0
-76 -43 0
-77 -44 0
-78 -45 0
-55 -46 0
-56 -47 0
-57 -48 0
-73 -46 0
-74 -47 0
-75 -48 0
-79 -46 0
-80 -47 0
-81 -48 0
-97 -46 0
-98 -47 0
-99 -48 0
-118 -46 0
-119 -47 0
-120 -48 0
-124 -46 0
-125 -47 0
-126 -48 0
-139 -46 0
-140 -47 0
-141 -48 0
-55 -49 0
-56 -50 0
-57 -51 0
-85 -49 0
-86 -50 0
-87 -51 0
-91 -49 0
-92 -50 0
-93 -51 0
-115 -49 0
-116 -50 0
-117 -51 0
-127 -52 0
-128 -53 0
-129 -54 0
-112 -55 0
-113 -56 0
-114 -57 0
-115 -55 0
-116 -56 0
-117 -57 0
-118 -55 0
-119 -56 0
-120 -57 0
-145 -58 0
-146 -59 0
-147 -60 0
-148 -58 0
-149 -59 0
-150 -60 0
-118 -61 0
-119 -62 0
-120 -63 0
-130 -64 0
-131 -65 0
-132 -66 0
-136 -64 0
-137 -65 0
-138 -66 0
-103 -67 0
-104 -68 0
-105 -69 0
-130 -67 0
-131 -68 0
-132 -69 0
-115 -70 0
-116 -71 0
-117 -72 0
-127 -70 0
-128 -71 0
-129 -72 0
-136 -70 0
-137 -71 0
-138 -72 0
-139 -70 0
-140 -71 0
-141 -72 0
-133 -73 0
-134 -74 0
-135 -75 0
-127 -76 0
-128 -77 0
-129 -78 0
-148 -76 0
-149 -77 0
-150 -78 0
-118 -79 0
-119 -80 0
-120 -81 0
-112 -82 0
-113 -83 0
-114 -84 0
-106 -85 0
-107 -86 0
-108 -87 0
-133 -85 0
-134 -86 0
-135 -87 0
-103 -88 0
-104 -89 0
-105 -90 0
-130 -88 0
-131 -89 0
-132 -90 0
-103 -91 0
-104 -92 0
-105 -93 0
-124 -91 0
-125 -92 0
-126 -93 0
-130 -91 0
-131 -92 0
-132 -93 0
-148 -91 0
-149 -92 0
-150 -93 0
-115 -94 0
-116 -95 0
-117 -96 0
-124 -94 0
-125 -95 0
-126 -96 0
-127 -94 0
-128 -95 0
-129 -96 0
-145 -94 0
-146 -95 0
-147 -96 0
-109 -97 0
-110 -98 0
-111 -99 0
-124 -97 0
-125 -98 0
-126 -99 0
-139 -97 0
-140 -98 0
-141 -99 0
-103 -100 0
-104 -101 0
-105 -102 0
-124 -100 0
-125 -101 0
-126 -102 0
-133 -100 0
-134 -101 0
-135 -102 0
